NAME: I10524-n27-k3
COMMENT : (Fake et al, No of trucks: 3, Optimal value: )
TYPE : CVRP
DIMENSION : 27
EDGE_WEIGHT_TYPE : EUC_2D
CAPACITY : 11
NODE_COORD_SECTION
1 296 835
2 625 458
3 105 729
4 982 361
5 28 217
6 105 749
7 23 758
8 460 765
9 314 409
10 626 46
11 550 120
12 768 397
13 655 764
14 780 613
15 592 727
16 845 830
17 927 565
18 923 110
19 680 140
20 352 490
21 940 209
22 614 136
23 990 341
24 132 674
25 741 274
26 912 187
27 629 453
DEMAND_SECTION
1 0
2 1
3 1
4 1
5 1
6 1
7 1
8 1
9 1
10 1
11 1
12 1
13 1
14 1
15 1
16 1
17 1
18 1
19 1
20 1
21 1
22 1
23 1
24 1
25 1
26 1
27 1
DEPOT_SECTION
 1
 -1
 EOF 